c bitvector 0: 1 2 3 4 5 6 7 8 9 10
c bitvector 1: 11 12 13 14 15 16 17 18 19 20
c bitvector 2: 21 22 23 24 25 26 27 28 29 30
c bitvector 3: 31 32 33 34 35 36 37 38 39 40
c bitvector 4: 41 42 43 44 45 46 47 48 49 50
c bitvector 5: 84 85 86 87 88 89 90 91 92 93
c bitvector 6: 94 95 96 97 98 99 100 101 102 103
c bitvector 7: 104 105 106 107 108 109 110 111 112 113
c bitvector 8: 114 115 116 117 118 119 120 121 122 123
c bitvector 9: 124 125 126 127 128 129 130 131 132 133
p cnf 134 177
-1 0
2 0
-3 0
4 0
-5 0
-6 0
-7 0
-8 0
-9 0
-10 0
-11 0
-12 0
-13 0
-14 0
-15 0
-16 0
-17 0
-18 0
-19 0
-20 0
-51 -21 11 0
-51 21 -11 0
51 21 11 0
51 -21 -11 0
-61 51 0
-52 -22 12 0
-52 22 -12 0
52 22 12 0
52 -22 -12 0
-61 52 0
-53 -23 13 0
-53 23 -13 0
53 23 13 0
53 -23 -13 0
-61 53 0
-54 -24 14 0
-54 24 -14 0
54 24 14 0
54 -24 -14 0
-61 54 0
-55 -25 15 0
-55 25 -15 0
55 25 15 0
55 -25 -15 0
-61 55 0
-56 -26 16 0
-56 26 -16 0
56 26 16 0
56 -26 -16 0
-61 56 0
-57 -27 17 0
-57 27 -17 0
57 27 17 0
57 -27 -17 0
-61 57 0
-58 -28 18 0
-58 28 -18 0
58 28 18 0
58 -28 -18 0
-61 58 0
-59 -29 19 0
-59 29 -19 0
59 29 19 0
59 -29 -19 0
-61 59 0
-60 -30 20 0
-60 30 -20 0
60 30 20 0
60 -30 -20 0
-61 60 0
-51 -52 -53 -54 -55 -56 -57 -58 -59 -60 61 0
-61 0
-62 -31 11 0
-62 31 -11 0
62 31 11 0
62 -31 -11 0
-72 62 0
-63 -32 12 0
-63 32 -12 0
63 32 12 0
63 -32 -12 0
-72 63 0
-64 -33 13 0
-64 33 -13 0
64 33 13 0
64 -33 -13 0
-72 64 0
-65 -34 14 0
-65 34 -14 0
65 34 14 0
65 -34 -14 0
-72 65 0
-66 -35 15 0
-66 35 -15 0
66 35 15 0
66 -35 -15 0
-72 66 0
-67 -36 16 0
-67 36 -16 0
67 36 16 0
67 -36 -16 0
-72 67 0
-68 -37 17 0
-68 37 -17 0
68 37 17 0
68 -37 -17 0
-72 68 0
-69 -38 18 0
-69 38 -18 0
69 38 18 0
69 -38 -18 0
-72 69 0
-70 -39 19 0
-70 39 -19 0
70 39 19 0
70 -39 -19 0
-72 70 0
-71 -40 20 0
-71 40 -20 0
71 40 20 0
71 -40 -20 0
-72 71 0
-62 -63 -64 -65 -66 -67 -68 -69 -70 -71 72 0
-72 0
-73 -21 31 0
-73 21 -31 0
73 21 31 0
73 -21 -31 0
-83 73 0
-74 -22 32 0
-74 22 -32 0
74 22 32 0
74 -22 -32 0
-83 74 0
-75 -23 33 0
-75 23 -33 0
75 23 33 0
75 -23 -33 0
-83 75 0
-76 -24 34 0
-76 24 -34 0
76 24 34 0
76 -24 -34 0
-83 76 0
-77 -25 35 0
-77 25 -35 0
77 25 35 0
77 -25 -35 0
-83 77 0
-78 -26 36 0
-78 26 -36 0
78 26 36 0
78 -26 -36 0
-83 78 0
-79 -27 37 0
-79 27 -37 0
79 27 37 0
79 -27 -37 0
-83 79 0
-80 -28 38 0
-80 28 -38 0
80 28 38 0
80 -28 -38 0
-83 80 0
-81 -29 39 0
-81 29 -39 0
81 29 39 0
81 -29 -39 0
-83 81 0
-82 -30 40 0
-82 30 -40 0
82 30 40 0
82 -30 -40 0
-83 82 0
-73 -74 -75 -76 -77 -78 -79 -80 -81 -82 83 0
-83 0
-134 0
